Version identifier: 22.1.1.0 | 2022-11-28 | 9160aff4d
CPXPARAM_Read_DataCheck                          1
CPXPARAM_MIP_Strategy_VariableSelect             3
CPXPARAM_MIP_Cuts_FlowCovers                     1
CPXPARAM_MIP_Cuts_Implied                        1
CPXPARAM_MIP_Cuts_Gomory                         1
CPXPARAM_MIP_Cuts_MIRCut                         1
CPXPARAM_MIP_Strategy_Search                     1
CPXPARAM_MIP_Strategy_HeuristicFreq              10
CPXPARAM_MIP_Tolerances_MIPGap                   0.0050000000000000001
Tried aggregator 2 times.
MIP Presolve eliminated 103 rows and 411 columns.
MIP Presolve added 22 rows and 0 columns.
MIP Presolve modified 13968 coefficients.
Aggregator did 5 substitutions.
Reduced MIP has 2646 rows, 3526 columns, and 18243 nonzeros.
Reduced MIP has 3477 binaries, 0 generals, 0 SOSs, and 0 indicators.
Presolve time = 0.02 sec. (25.76 ticks)
Found incumbent of value 1823.000000 after 0.05 sec. (47.60 ticks)
Probing time = 0.02 sec. (4.67 ticks)
Tried aggregator 1 time.
Detecting symmetries...
Reduced MIP has 2646 rows, 3526 columns, and 18243 nonzeros.
Reduced MIP has 3477 binaries, 0 generals, 0 SOSs, and 0 indicators.
Presolve time = 0.01 sec. (10.45 ticks)
Probing time = 0.01 sec. (4.56 ticks)
Clique table members: 10680.
MIP emphasis: balance optimality and feasibility.
MIP search method: traditional branch-and-cut.
Parallel mode: deterministic, using up to 12 threads.
Root relaxation solution time = 0.03 sec. (17.61 ticks)

        Nodes                                         Cuts/
   Node  Left     Objective  IInf  Best Integer    Best Bound    ItCnt     Gap         Variable B NodeID Parent  Depth

*     0+    0                         1823.0000        0.0000           100.00%
      0     0      306.0224    91     1823.0000      306.0224      445   83.21%
*     0+    0                          928.0000      306.0224            67.02%
      0     0      331.8000    59      928.0000     Cuts: 120      544   64.25%
      0     0      336.4327    51      928.0000     Cuts: 184      617   63.75%
      0     0      339.6468    65      928.0000      Cuts: 49      861   63.40%
*     0+    0                          825.0000      339.6468            58.83%
      0     0      340.6000     5      825.0000     Cuts: 175      918   58.72%
*     0+    0                          475.0000      340.6000            28.29%
      0     0      340.6000     6      475.0000       Cuts: 6      925   28.29%
Detecting symmetries...
      0     0      340.6000     2      475.0000       Cuts: 7      934   28.29%
*     0+    0                          419.0000      340.6000            18.71%
Detecting symmetries...

Repeating presolve.
Tried aggregator 1 time.
MIP Presolve eliminated 1096 rows and 1140 columns.
Reduced MIP has 1550 rows, 2386 columns, and 11095 nonzeros.
Reduced MIP has 2337 binaries, 0 generals, 0 SOSs, and 0 indicators.
Presolve time = 0.00 sec. (5.76 ticks)
Probing time = 0.01 sec. (3.54 ticks)
Cover probing fixed 0 vars, tightened 11 bounds.
Tried aggregator 1 time.
Detecting symmetries...
MIP Presolve modified 570 coefficients.
Reduced MIP has 1550 rows, 2386 columns, and 11095 nonzeros.
Reduced MIP has 2337 binaries, 0 generals, 0 SOSs, and 0 indicators.
Presolve time = 0.01 sec. (6.58 ticks)
Represolve time = 0.03 sec. (25.38 ticks)
Probing time = 0.01 sec. (3.43 ticks)
Clique table members: 6709.
MIP emphasis: balance optimality and feasibility.
MIP search method: traditional branch-and-cut.
Parallel mode: deterministic, using up to 12 threads.
Root relaxation solution time = 0.02 sec. (21.87 ticks)

        Nodes                                         Cuts/
   Node  Left     Objective  IInf  Best Integer    Best Bound    ItCnt     Gap         Variable B NodeID Parent  Depth

*     0+    0                          419.0000      340.6000            18.71%
      0     0      340.6000     3      419.0000      340.6000     1539   18.71%
      0     0      340.6000     3      419.0000       Cuts: 6     1544   18.71%
      0     0      340.6000     5      419.0000       Cuts: 4     1559   18.71%
*     0+    0                          387.0000      340.6000            11.99%
*     0+    0                          385.0000      340.6000            11.53%
      0     0  -1.00000e+75     0      385.0000      340.6000     1559   11.53%
Detecting symmetries...
      0     2      340.6000     5      385.0000      340.6000     1559   11.53%                        0             0
Elapsed time = 0.64 sec. (467.08 ticks, tree = 0.02 MB, solutions = 7)
*     8+    1                          363.0000      340.6000             6.17%
     57    35      347.6121    48      363.0000      342.0000     4343    5.79%          x_4_18 D     32     20      6
    164   122      350.0000    22      363.0000      342.0000     7706    5.79%           x_4_7 D    233    221     20
*   169+  128                          360.0000      342.0000             5.00%
*   241   162      integral     0      355.0000      342.0000    11284    3.66%
*   263   121      integral     0      352.0000      342.0000    11307    2.84%
    279    81      349.0000    52      352.0000      342.0000    12601    2.84%         x_12_30 N    343    217     26
*   423   102      integral     0      351.0000      342.2500    17013    2.49%
    426    99      347.7592     9      351.0000      342.2500    16536    2.49%       y_auto_23 D    244    232     18
*   502    86      integral     0      348.0000      342.2500    19336    1.65%
    540    43      342.5000    31      348.0000      342.2500    19803    1.65%         x_16_41 D    587    575     17
*   649    29      integral     0      346.0000      343.0000    22420    0.87%          x_32_1 D    896    884     40
*   666     6      integral     0      344.0000      343.1062    24768    0.26%

Clique cuts applied:  7
Cover cuts applied:  120
Implied bound cuts applied:  0
Flow cuts applied:  0
Mixed integer rounding cuts applied:  10
Zero-half cuts applied:  14
Gomory fractional cuts applied:  11

Root node processing (before b&c):
  Real time             =    0.62 sec. (466.55 ticks)
Parallel b&c, 12 threads:
  Real time             =    1.66 sec. (1601.83 ticks)
  Sync time (average)   =    0.43 sec.
  Wait time (average)   =    0.00 sec.
                          ------------
Total (root+branch&cut) =    2.28 sec. (2068.38 ticks)
